
Gurobi 6.0.2 (mac64) logging started Sun May  3 15:44:18 2015


Gurobi 6.0.2 (mac64) logging started Sun May  3 15:48:42 2015


Gurobi 6.0.2 (mac64) logging started Sun May  3 15:49:07 2015


Gurobi 6.0.2 (mac64) logging started Sun May  3 15:49:57 2015


Gurobi 6.0.2 (mac64) logging started Sun May  3 15:50:13 2015


Gurobi 6.0.2 (mac64) logging started Sun May  3 15:50:23 2015


Gurobi 6.0.2 (mac64) logging started Tue May  5 00:06:00 2015


Gurobi 6.0.2 (mac64) logging started Tue May  5 09:21:46 2015


Gurobi 6.0.2 (mac64) logging started Tue May  5 09:23:18 2015


Gurobi 6.0.2 (mac64) logging started Tue May  5 09:23:49 2015


Gurobi 6.0.2 (mac64) logging started Tue May  5 09:24:22 2015


Gurobi 6.0.2 (mac64) logging started Tue May  5 09:26:21 2015


Gurobi 6.0.2 (mac64) logging started Tue May  5 09:26:40 2015


Gurobi 6.0.2 (mac64) logging started Tue May  5 09:27:08 2015


Gurobi 6.0.2 (mac64) logging started Tue May  5 09:27:32 2015


Gurobi 6.0.2 (mac64) logging started Tue May  5 09:29:19 2015


Gurobi 6.0.2 (mac64) logging started Tue May  5 09:31:07 2015


Gurobi 6.0.2 (mac64) logging started Tue May  5 09:37:52 2015


Gurobi 6.0.2 (mac64) logging started Tue May  5 09:39:21 2015


Gurobi 6.0.2 (mac64) logging started Tue May  5 09:40:55 2015


Gurobi 6.0.2 (mac64) logging started Tue May  5 09:43:03 2015


Gurobi 6.0.2 (mac64) logging started Tue May  5 09:43:49 2015


Gurobi 6.0.2 (mac64) logging started Tue May  5 09:53:38 2015


Gurobi 6.0.2 (mac64) logging started Tue May  5 09:54:11 2015


Gurobi 6.0.2 (mac64) logging started Tue May  5 09:55:25 2015


Gurobi 6.0.2 (mac64) logging started Tue May  5 09:55:31 2015


Gurobi 6.0.2 (mac64) logging started Tue May  5 09:56:22 2015


Gurobi 6.0.2 (mac64) logging started Tue May  5 09:56:28 2015


Gurobi 6.0.2 (mac64) logging started Tue May  5 09:56:50 2015


Gurobi 6.0.2 (mac64) logging started Tue May  5 09:57:21 2015

